NAME: ACTUAL_TOURS/amz1845
TYPE: TOUR
COMMENT: RouteID_c4b7fe17-3b19-4b7d-841d-f840bff48e5c
DIMENSION: 133
TOUR_SECTION
10
97
46
26
5
51
22
6
40
129
3
8
105
49
41
34
103
24
80
65
2
102
28
12
81
52
31
59
43
60
127
69
25
107
67
57
17
124
53
66
13
58
64
16
19
112
56
7
82
132
90
98
42
11
117
94
114
109
118
23
120
95
126
119
33
35
78
55
91
122
20
113
108
72
130
63
44
104
62
27
39
85
86
36
71
88
99
92
77
116
101
128
76
74
1
68
18
15
29
38
115
4
14
110
87
47
111
54
131
100
21
84
83
48
32
70
73
93
89
123
75
133
125
9
30
106
61
50
79
45
37
96
121
-1
EOF
